10
0 3779 3869 3186 7249 8850 3903 8581 6193 3003 
3779 0 6899 161 2945 8405 1899 6869 4793 5001 
3869 6899 0 41 8641 9493 5337 7541 4351 1194 
3186 161 41 0 5621 8552 4817 6407 1461 2921 
7249 2945 8641 5621 0 1049 8493 2511 173 5013 
8850 8405 9493 8552 1049 0 1633 5993 3063 2611 
3903 1899 5337 4817 8493 1633 0 911 7841 6329 
8581 6869 7541 6407 2511 5993 911 0 5877 8521 
6193 4793 4351 1461 173 3063 7841 5877 0 2017 
3003 5001 1194 2921 5013 2611 6329 8521 2017 0 
